100
500
349
345
337
337
333
332
327
326
323
319
319
317
316
315
315
311
301
294
292
285
284
284
284
283
272
272
272
268
268
258
254
250
247
247
240
239
239
239
232
229
228
221
213
213
209
209
209
207
205
193
192
190
181
171
171
171
170
168
167
159
158
158
154
154
153
152
149
148
139
138
131
130
128
128
125
125
124
115
104
100
99
95
94
88
87
86
85
84
81
80
77
70
70
68
65
65
61
59
58
53
